certificates/rado_a15_c238_N28.drat
-26 -28 0
-17 -27 15 0
17 15 0
-28 0
15 0
-2 0
-17 0
19 0
11 0
-6 0
-24 0
23 0
7 0
-10 0
-20 0
27 0
3 0
-14 0
-16 0
12 0
0
